# Solution for model r3_t9_m3_3
# Finished Task: 5 / 9
# Makespan: 555.0, Total Distance: 200.0, Total Time: 0.2933
# R O S F
0 0 10 152.0 152.0
1 1 -1 142.0 142.0
2 2 5 237.0 237.0
3 -1 -1 555.0 580.0
4 -1 -1 522.0 550.0
5 2 6 270.0 292.0
6 2 7 366.0 388.0
7 2 -1 499.0 528.0
8 -1 -1 492.0 522.0
9 -1 -1 550.0 574.0
10 0 11 475.0 499.0
11 0 -1 534.0 555.0
